! SP PBE0 RIJCOSX D3BJ def2-TZVP def2/J 
%output 
xyzfile=True 
end 
%scf 
maxiter 250 
end
%output
Print[P_Hirshfeld] = 1
end
% maxcore
4000
*xyz 0 1
C    1.84441041  -0.09426605  -0.10897394 
C    0.60949127   0.38579148   0.09226231 
C   -0.60948449  -0.38583918  -0.09229508 
C   -1.84438072   0.09425615   0.10894849 
H    2.73216136   0.52395637   0.04287237 
H    2.00587448  -1.12707810  -0.43379978 
H    0.48264861   1.42561548   0.41757161 
H   -0.48267416  -1.42566819  -0.41760124 
H   -2.73222511  -0.52384424  -0.04285837 
H   -2.00582165   1.12707627   0.43377363 
*
