! Opt PBE0 RIJCOSX D3BJ def2-SVP def2/J 
%output 
xyzfile=True 
end 
%scf 
maxiter 250 
end
%output
Print[P_Hirshfeld] = 1
end
% maxcore
4000
*xyz 0 1
H    0.38829202  -0.00000000   0.00000000 
H   -0.38829202   0.00000000   0.00000000 
*
