! LooseOpt PBE0 RIJCOSX D3BJ def2-SVP def2/J 
%geom MaxIter 10 end
%output 
xyzfile=True 
end 
%scf 
maxiter 250 
end
%output
Print[P_Hirshfeld] = 1
end
% maxcore
4000
*xyz 0 1
C   -0.88426379  -1.24663757  -0.17753754 
C    0.41845106  -1.45801772  -0.25874564 
C    1.44295967  -0.37436757  -0.11589782 
C    0.81139756   1.00825118  -0.25606656 
C   -0.45058555   1.08770182   0.59578024 
C   -1.48977933   0.10078853   0.07065260 
H   -1.58143581  -2.06433613  -0.30121408 
H    0.80326753  -2.45499236  -0.42703570 
H    2.22616270  -0.51034960  -0.86638929 
H    1.92076581  -0.46707754   0.86569829 
H    0.54882760   1.18246540  -1.30186869 
H    1.52483283   1.77787560   0.04538904 
H   -0.85711970   2.10122156   0.58299224 
H   -0.20163859   0.83711123   1.62938656 
H   -2.31465904   0.00600205   0.78189389 
H   -1.91708296   0.47426113  -0.86683752 
*
