! Opt PBE0 RIJCOSX D3BJ def2-SVP def2/J 
%output 
xyzfile=True 
end 
%scf 
maxiter 250 
end
%output
Print[P_Hirshfeld] = 1
end
% maxcore
4000
*xyz 0 1
C   -0.89380323  -1.25315111  -0.18320472 
C    0.42504704  -1.46844125  -0.25660055 
C    1.44689244  -0.37749388  -0.12279767 
C    0.82363444   1.01001237  -0.23764078 
C   -0.46040900   1.09938718   0.57885774 
C   -1.49525790   0.09698633   0.07747852 
H   -1.58236842  -2.09500479  -0.31513341 
H    0.79344246  -2.48628128  -0.42542907 
H    2.23487613  -0.51068824  -0.88380998 
H    1.96592966  -0.48348621   0.84944321 
H    0.58904558   1.21380782  -1.29764612 
H    1.54428638   1.78160992   0.07625672 
H   -0.87224477   2.12065117   0.55439284 
H   -0.22823991   0.88076705   1.63648736 
H   -2.32274029   0.00166095   0.80134039 
H   -1.96799064   0.46956398  -0.85179446 
*
