! Opt PBE0 RIJCOSX D3BJ def2-SVP def2/J 
%output 
xyzfile=True 
end 
%scf 
maxiter 250 
end
%output
Print[P_Hirshfeld] = 1
end
% maxcore
4000
*xyz 0 1
C    1.84497305  -0.09418047  -0.10898992 
C    0.60967290   0.38591186   0.09229225 
C   -0.60967077  -0.38597778  -0.09233048 
C   -1.84492392   0.09416235   0.10896393 
H    2.73306646   0.52362180   0.04273539 
H    2.00655921  -1.12706402  -0.43381868 
H    0.48236791   1.42573719   0.41762408 
H   -0.48241388  -1.42581083  -0.41765622 
H   -2.73315287  -0.52346226  -0.04271035 
H   -2.00647809   1.12706215   0.43379000 
*
